p edge 75 1665
e 1 2
e 1 3
e 1 6
e 1 7
e 1 11
e 1 12
e 1 13
e 1 15
e 1 17
e 1 18
e 1 19
e 1 21
e 1 23
e 1 24
e 1 26
e 1 29
e 1 30
e 1 31
e 1 32
e 1 36
e 1 37
e 1 38
e 1 39
e 1 41
e 1 43
e 1 44
e 1 45
e 1 47
e 1 48
e 1 49
e 1 52
e 1 54
e 1 55
e 1 56
e 1 58
e 1 59
e 1 62
e 1 65
e 1 66
e 1 68
e 1 70
e 1 71
e 1 73
e 1 75
e 2 3
e 2 4
e 2 6
e 2 7
e 2 8
e 2 10
e 2 12
e 2 14
e 2 15
e 2 16
e 2 17
e 2 19
e 2 21
e 2 23
e 2 24
e 2 25
e 2 26
e 2 27
e 2 29
e 2 30
e 2 31
e 2 32
e 2 33
e 2 35
e 2 36
e 2 38
e 2 39
e 2 42
e 2 44
e 2 45
e 2 46
e 2 47
e 2 48
e 2 49
e 2 50
e 2 52
e 2 53
e 2 54
e 2 55
e 2 57
e 2 58
e 2 59
e 2 60
e 2 63
e 2 64
e 2 65
e 2 66
e 2 69
e 2 70
e 2 74
e 2 75
e 3 4
e 3 5
e 3 6
e 3 7
e 3 8
e 3 9
e 3 12
e 3 13
e 3 14
e 3 15
e 3 16
e 3 17
e 3 18
e 3 19
e 3 20
e 3 21
e 3 22
e 3 25
e 3 26
e 3 28
e 3 29
e 3 30
e 3 32
e 3 34
e 3 35
e 3 38
e 3 39
e 3 40
e 3 41
e 3 42
e 3 43
e 3 46
e 3 47
e 3 49
e 3 50
e 3 51
e 3 52
e 3 55
e 3 58
e 3 59
e 3 60
e 3 61
e 3 62
e 3 64
e 3 66
e 3 69
e 3 71
e 3 72
e 3 73
e 3 74
e 3 75
e 4 5
e 4 7
e 4 9
e 4 10
e 4 11
e 4 12
e 4 13
e 4 15
e 4 17
e 4 18
e 4 20
e 4 22
e 4 27
e 4 29
e 4 30
e 4 33
e 4 34
e 4 36
e 4 37
e 4 40
e 4 41
e 4 44
e 4 47
e 4 48
e 4 53
e 4 56
e 4 57
e 4 58
e 4 59
e 4 60
e 4 61
e 4 62
e 4 63
e 4 66
e 4 67
e 4 69
e 4 70
e 4 71
e 4 74
e 4 75
e 5 7
e 5 8
e 5 9
e 5 10
e 5 11
e 5 12
e 5 13
e 5 14
e 5 15
e 5 16
e 5 18
e 5 20
e 5 22
e 5 29
e 5 30
e 5 31
e 5 33
e 5 34
e 5 35
e 5 37
e 5 38
e 5 40
e 5 42
e 5 44
e 5 45
e 5 46
e 5 47
e 5 49
e 5 50
e 5 51
e 5 52
e 5 53
e 5 54
e 5 55
e 5 56
e 5 58
e 5 59
e 5 61
e 5 62
e 5 63
e 5 64
e 5 65
e 5 68
e 5 72
e 5 74
e 6 7
e 6 8
e 6 9
e 6 10
e 6 12
e 6 13
e 6 15
e 6 17
e 6 19
e 6 20
e 6 22
e 6 23
e 6 24
e 6 27
e 6 28
e 6 30
e 6 31
e 6 34
e 6 35
e 6 36
e 6 37
e 6 39
e 6 40
e 6 42
e 6 47
e 6 49
e 6 50
e 6 52
e 6 53
e 6 54
e 6 55
e 6 58
e 6 59
e 6 60
e 6 61
e 6 62
e 6 64
e 6 66
e 6 67
e 6 68
e 6 71
e 6 73
e 6 75
e 7 8
e 7 9
e 7 10
e 7 12
e 7 14
e 7 15
e 7 16
e 7 18
e 7 20
e 7 24
e 7 25
e 7 30
e 7 31
e 7 33
e 7 35
e 7 36
e 7 37
e 7 39
e 7 40
e 7 45
e 7 46
e 7 47
e 7 48
e 7 49
e 7 52
e 7 53
e 7 54
e 7 55
e 7 56
e 7 59
e 7 60
e 7 62
e 7 64
e 7 65
e 7 67
e 7 68
e 7 69
e 7 70
e 7 71
e 7 72
e 7 73
e 7 75
e 8 9
e 8 11
e 8 14
e 8 15
e 8 16
e 8 17
e 8 18
e 8 19
e 8 20
e 8 21
e 8 26
e 8 27
e 8 28
e 8 30
e 8 32
e 8 33
e 8 36
e 8 37
e 8 38
e 8 39
e 8 40
e 8 41
e 8 42
e 8 43
e 8 44
e 8 45
e 8 46
e 8 47
e 8 48
e 8 50
e 8 53
e 8 55
e 8 58
e 8 60
e 8 61
e 8 62
e 8 63
e 8 64
e 8 65
e 8 67
e 8 70
e 8 71
e 8 72
e 8 73
e 9 10
e 9 16
e 9 20
e 9 24
e 9 27
e 9 28
e 9 29
e 9 30
e 9 31
e 9 32
e 9 35
e 9 36
e 9 43
e 9 45
e 9 46
e 9 48
e 9 49
e 9 51
e 9 53
e 9 54
e 9 55
e 9 57
e 9 58
e 9 59
e 9 60
e 9 62
e 9 63
e 9 68
e 9 70
e 9 73
e 9 75
e 10 12
e 10 14
e 10 15
e 10 16
e 10 17
e 10 21
e 10 22
e 10 23
e 10 24
e 10 27
e 10 28
e 10 29
e 10 30
e 10 31
e 10 32
e 10 33
e 10 35
e 10 36
e 10 37
e 10 38
e 10 39
e 10 40
e 10 41
e 10 42
e 10 43
e 10 45
e 10 46
e 10 47
e 10 48
e 10 51
e 10 52
e 10 53
e 10 54
e 10 55
e 10 57
e 10 58
e 10 59
e 10 61
e 10 62
e 10 65
e 10 66
e 10 69
e 10 71
e 10 72
e 10 74
e 10 75
e 11 14
e 11 15
e 11 16
e 11 17
e 11 18
e 11 20
e 11 21
e 11 23
e 11 24
e 11 25
e 11 26
e 11 27
e 11 28
e 11 30
e 11 31
e 11 33
e 11 36
e 11 38
e 11 43
e 11 44
e 11 45
e 11 46
e 11 47
e 11 48
e 11 49
e 11 55
e 11 57
e 11 58
e 11 60
e 11 61
e 11 64
e 11 67
e 11 68
e 11 70
e 11 71
e 11 72
e 11 73
e 12 13
e 12 14
e 12 18
e 12 21
e 12 22
e 12 30
e 12 32
e 12 33
e 12 34
e 12 35
e 12 37
e 12 42
e 12 43
e 12 45
e 12 46
e 12 47
e 12 49
e 12 52
e 12 53
e 12 56
e 12 57
e 12 58
e 12 60
e 12 61
e 12 62
e 12 63
e 12 64
e 12 65
e 12 72
e 12 73
e 12 75
e 13 14
e 13 15
e 13 16
e 13 17
e 13 18
e 13 20
e 13 22
e 13 24
e 13 25
e 13 29
e 13 30
e 13 31
e 13 32
e 13 34
e 13 36
e 13 38
e 13 39
e 13 40
e 13 45
e 13 46
e 13 47
e 13 50
e 13 53
e 13 55
e 13 56
e 13 59
e 13 62
e 13 63
e 13 64
e 13 65
e 13 66
e 13 67
e 13 69
e 13 71
e 13 72
e 13 73
e 13 75
e 14 16
e 14 17
e 14 19
e 14 21
e 14 23
e 14 24
e 14 25
e 14 26
e 14 27
e 14 28
e 14 30
e 14 31
e 14 33
e 14 34
e 14 36
e 14 40
e 14 42
e 14 43
e 14 44
e 14 45
e 14 47
e 14 48
e 14 50
e 14 53
e 14 54
e 14 55
e 14 56
e 14 57
e 14 58
e 14 59
e 14 61
e 14 63
e 14 64
e 14 66
e 14 67
e 14 69
e 14 70
e 14 74
e 14 75
e 15 16
e 15 17
e 15 18
e 15 19
e 15 22
e 15 23
e 15 24
e 15 27
e 15 33
e 15 34
e 15 35
e 15 36
e 15 37
e 15 38
e 15 39
e 15 40
e 15 44
e 15 45
e 15 46
e 15 47
e 15 48
e 15 49
e 15 50
e 15 52
e 15 54
e 15 56
e 15 59
e 15 60
e 15 61
e 15 64
e 15 65
e 15 69
e 15 70
e 15 72
e 15 73
e 15 74
e 16 17
e 16 22
e 16 23
e 16 24
e 16 25
e 16 27
e 16 28
e 16 29
e 16 30
e 16 31
e 16 32
e 16 34
e 16 37
e 16 38
e 16 39
e 16 40
e 16 41
e 16 43
e 16 44
e 16 45
e 16 46
e 16 47
e 16 50
e 16 53
e 16 54
e 16 56
e 16 57
e 16 58
e 16 59
e 16 61
e 16 64
e 16 65
e 16 67
e 16 68
e 16 70
e 16 71
e 16 74
e 17 19
e 17 22
e 17 24
e 17 25
e 17 26
e 17 27
e 17 28
e 17 29
e 17 30
e 17 35
e 17 37
e 17 38
e 17 41
e 17 42
e 17 43
e 17 44
e 17 46
e 17 47
e 17 48
e 17 49
e 17 50
e 17 52
e 17 54
e 17 55
e 17 56
e 17 58
e 17 59
e 17 65
e 17 66
e 17 67
e 17 69
e 17 71
e 17 72
e 17 73
e 17 74
e 18 20
e 18 24
e 18 25
e 18 27
e 18 29
e 18 30
e 18 31
e 18 34
e 18 35
e 18 36
e 18 38
e 18 40
e 18 41
e 18 44
e 18 46
e 18 47
e 18 49
e 18 51
e 18 53
e 18 55
e 18 57
e 18 58
e 18 61
e 18 62
e 18 66
e 18 67
e 18 69
e 18 70
e 18 71
e 18 74
e 19 23
e 19 24
e 19 26
e 19 27
e 19 29
e 19 30
e 19 31
e 19 32
e 19 35
e 19 38
e 19 41
e 19 42
e 19 44
e 19 45
e 19 47
e 19 48
e 19 51
e 19 53
e 19 54
e 19 55
e 19 58
e 19 61
e 19 63
e 19 64
e 19 65
e 19 66
e 19 67
e 19 68
e 19 69
e 19 75
e 20 22
e 20 24
e 20 25
e 20 27
e 20 28
e 20 29
e 20 30
e 20 31
e 20 33
e 20 34
e 20 35
e 20 36
e 20 41
e 20 42
e 20 43
e 20 44
e 20 49
e 20 50
e 20 51
e 20 52
e 20 53
e 20 54
e 20 55
e 20 56
e 20 58
e 20 65
e 20 66
e 20 68
e 20 69
e 20 70
e 20 71
e 20 72
e 20 73
e 20 74
e 20 75
e 21 22
e 21 23
e 21 28
e 21 29
e 21 31
e 21 32
e 21 33
e 21 34
e 21 35
e 21 37
e 21 38
e 21 39
e 21 40
e 21 41
e 21 43
e 21 45
e 21 46
e 21 47
e 21 48
e 21 51
e 21 53
e 21 55
e 21 58
e 21 62
e 21 63
e 21 66
e 21 67
e 21 71
e 21 72
e 21 74
e 21 75
e 22 23
e 22 24
e 22 26
e 22 27
e 22 29
e 22 30
e 22 31
e 22 32
e 22 33
e 22 34
e 22 35
e 22 37
e 22 38
e 22 39
e 22 40
e 22 41
e 22 43
e 22 45
e 22 46
e 22 47
e 22 49
e 22 50
e 22 51
e 22 54
e 22 55
e 22 56
e 22 57
e 22 58
e 22 59
e 22 60
e 22 63
e 22 65
e 22 66
e 22 68
e 22 70
e 22 72
e 22 75
e 23 24
e 23 25
e 23 26
e 23 28
e 23 29
e 23 30
e 23 31
e 23 34
e 23 36
e 23 38
e 23 39
e 23 40
e 23 41
e 23 42
e 23 44
e 23 45
e 23 46
e 23 47
e 23 48
e 23 49
e 23 51
e 23 52
e 23 54
e 23 57
e 23 58
e 23 60
e 23 63
e 23 64
e 23 65
e 23 66
e 23 68
e 23 69
e 23 70
e 23 73
e 23 74
e 24 25
e 24 27
e 24 29
e 24 31
e 24 33
e 24 37
e 24 39
e 24 40
e 24 41
e 24 44
e 24 46
e 24 47
e 24 48
e 24 50
e 24 51
e 24 53
e 24 54
e 24 55
e 24 56
e 24 57
e 24 58
e 24 59
e 24 60
e 24 61
e 24 63
e 24 64
e 24 67
e 24 68
e 24 70
e 24 71
e 24 72
e 24 73
e 24 75
e 25 26
e 25 28
e 25 29
e 25 31
e 25 32
e 25 34
e 25 35
e 25 36
e 25 37
e 25 40
e 25 41
e 25 43
e 25 45
e 25 50
e 25 51
e 25 52
e 25 54
e 25 57
e 25 60
e 25 62
e 25 63
e 25 64
e 25 67
e 25 68
e 25 69
e 25 71
e 25 72
e 25 74
e 26 27
e 26 28
e 26 29
e 26 31
e 26 32
e 26 33
e 26 34
e 26 37
e 26 39
e 26 40
e 26 42
e 26 43
e 26 44
e 26 46
e 26 47
e 26 49
e 26 50
e 26 51
e 26 52
e 26 53
e 26 55
e 26 61
e 26 62
e 26 63
e 26 65
e 26 69
e 26 70
e 26 71
e 26 73
e 26 75
e 27 28
e 27 29
e 27 31
e 27 33
e 27 34
e 27 37
e 27 40
e 27 41
e 27 42
e 27 44
e 27 48
e 27 49
e 27 50
e 27 55
e 27 56
e 27 61
e 27 64
e 27 65
e 27 68
e 27 69
e 27 71
e 27 73
e 27 74
e 28 31
e 28 35
e 28 36
e 28 37
e 28 38
e 28 39
e 28 40
e 28 43
e 28 44
e 28 45
e 28 47
e 28 49
e 28 50
e 28 51
e 28 53
e 28 55
e 28 57
e 28 60
e 28 61
e 28 62
e 28 64
e 28 65
e 28 67
e 28 69
e 28 72
e 28 73
e 28 74
e 29 30
e 29 32
e 29 33
e 29 34
e 29 35
e 29 36
e 29 37
e 29 38
e 29 40
e 29 41
e 29 42
e 29 44
e 29 45
e 29 48
e 29 51
e 29 52
e 29 55
e 29 56
e 29 57
e 29 58
e 29 62
e 29 63
e 29 64
e 29 65
e 29 66
e 29 68
e 29 69
e 29 71
e 29 72
e 30 31
e 30 32
e 30 33
e 30 37
e 30 38
e 30 39
e 30 41
e 30 42
e 30 43
e 30 44
e 30 46
e 30 47
e 30 48
e 30 49
e 30 50
e 30 51
e 30 53
e 30 56
e 30 57
e 30 59
e 30 60
e 30 61
e 30 62
e 30 64
e 30 66
e 30 68
e 30 69
e 30 71
e 30 73
e 30 74
e 30 75
e 31 33
e 31 35
e 31 38
e 31 44
e 31 45
e 31 48
e 31 49
e 31 50
e 31 52
e 31 53
e 31 54
e 31 58
e 31 59
e 31 60
e 31 61
e 31 62
e 31 63
e 31 64
e 31 66
e 31 69
e 31 72
e 31 73
e 31 74
e 31 75
e 32 33
e 32 37
e 32 38
e 32 39
e 32 43
e 32 45
e 32 46
e 32 48
e 32 49
e 32 50
e 32 51
e 32 53
e 32 54
e 32 56
e 32 57
e 32 58
e 32 59
e 32 60
e 32 61
e 32 62
e 32 63
e 32 64
e 32 65
e 32 66
e 32 67
e 32 68
e 32 69
e 32 71
e 32 72
e 32 75
e 33 34
e 33 37
e 33 38
e 33 39
e 33 40
e 33 41
e 33 42
e 33 44
e 33 46
e 33 47
e 33 49
e 33 50
e 33 51
e 33 52
e 33 54
e 33 57
e 33 58
e 33 59
e 33 61
e 33 62
e 33 64
e 33 67
e 33 68
e 33 70
e 33 71
e 33 74
e 34 37
e 34 38
e 34 39
e 34 40
e 34 45
e 34 46
e 34 53
e 34 54
e 34 55
e 34 61
e 34 62
e 34 63
e 34 64
e 34 68
e 34 69
e 34 70
e 34 71
e 34 74
e 35 37
e 35 39
e 35 40
e 35 41
e 35 42
e 35 45
e 35 46
e 35 47
e 35 48
e 35 51
e 35 52
e 35 54
e 35 57
e 35 59
e 35 61
e 35 62
e 35 65
e 35 66
e 35 68
e 35 69
e 36 37
e 36 40
e 36 44
e 36 45
e 36 46
e 36 47
e 36 48
e 36 49
e 36 55
e 36 56
e 36 57
e 36 59
e 36 61
e 36 62
e 36 63
e 36 65
e 36 66
e 36 68
e 36 69
e 36 74
e 37 39
e 37 41
e 37 43
e 37 44
e 37 45
e 37 47
e 37 48
e 37 50
e 37 51
e 37 52
e 37 54
e 37 55
e 37 56
e 37 58
e 37 60
e 37 62
e 37 63
e 37 64
e 37 65
e 37 66
e 37 67
e 37 69
e 37 70
e 37 71
e 37 73
e 38 39
e 38 40
e 38 42
e 38 43
e 38 45
e 38 48
e 38 49
e 38 51
e 38 52
e 38 53
e 38 54
e 38 55
e 38 56
e 38 57
e 38 58
e 38 59
e 38 60
e 38 61
e 38 62
e 38 66
e 38 67
e 38 69
e 38 70
e 38 71
e 38 74
e 39 41
e 39 42
e 39 45
e 39 47
e 39 49
e 39 51
e 39 52
e 39 54
e 39 55
e 39 58
e 39 62
e 39 63
e 39 67
e 39 68
e 39 69
e 39 70
e 39 71
e 39 74
e 40 43
e 40 45
e 40 48
e 40 49
e 40 50
e 40 51
e 40 53
e 40 54
e 40 55
e 40 56
e 40 57
e 40 58
e 40 59
e 40 62
e 40 63
e 40 64
e 40 65
e 40 66
e 40 67
e 40 68
e 40 69
e 40 71
e 40 72
e 40 73
e 40 75
e 41 42
e 41 43
e 41 46
e 41 48
e 41 49
e 41 50
e 41 51
e 41 53
e 41 55
e 41 56
e 41 57
e 41 58
e 41 59
e 41 60
e 41 61
e 41 62
e 41 64
e 41 65
e 41 66
e 41 69
e 41 70
e 41 71
e 41 72
e 41 73
e 41 74
e 41 75
e 42 43
e 42 44
e 42 45
e 42 46
e 42 47
e 42 48
e 42 51
e 42 52
e 42 53
e 42 55
e 42 59
e 42 62
e 42 63
e 42 64
e 42 66
e 42 67
e 42 68
e 42 69
e 42 70
e 42 71
e 42 72
e 42 73
e 42 75
e 43 46
e 43 47
e 43 48
e 43 53
e 43 54
e 43 55
e 43 59
e 43 60
e 43 61
e 43 64
e 43 65
e 43 66
e 43 68
e 43 69
e 43 71
e 43 72
e 43 73
e 43 74
e 44 47
e 44 50
e 44 52
e 44 55
e 44 56
e 44 57
e 44 58
e 44 60
e 44 62
e 44 63
e 44 64
e 44 66
e 44 68
e 44 69
e 44 72
e 45 51
e 45 52
e 45 54
e 45 56
e 45 57
e 45 61
e 45 63
e 45 64
e 45 65
e 45 66
e 45 67
e 45 70
e 45 74
e 45 75
e 46 47
e 46 48
e 46 49
e 46 53
e 46 55
e 46 56
e 46 57
e 46 58
e 46 59
e 46 62
e 46 64
e 46 66
e 46 67
e 46 69
e 46 70
e 46 71
e 46 73
e 46 74
e 46 75
e 47 48
e 47 49
e 47 54
e 47 55
e 47 56
e 47 57
e 47 61
e 47 62
e 47 63
e 47 66
e 47 70
e 47 71
e 47 72
e 47 73
e 47 74
e 47 75
e 48 51
e 48 52
e 48 53
e 48 54
e 48 56
e 48 57
e 48 58
e 48 59
e 48 61
e 48 63
e 48 64
e 48 66
e 48 68
e 48 69
e 48 70
e 48 73
e 48 74
e 49 50
e 49 51
e 49 52
e 49 53
e 49 55
e 49 56
e 49 59
e 49 61
e 49 64
e 49 65
e 49 66
e 49 68
e 49 70
e 49 72
e 49 75
e 50 51
e 50 52
e 50 53
e 50 54
e 50 56
e 50 58
e 50 59
e 50 60
e 50 62
e 50 63
e 50 66
e 50 67
e 50 69
e 50 70
e 50 71
e 50 72
e 50 73
e 51 52
e 51 53
e 51 56
e 51 57
e 51 58
e 51 59
e 51 60
e 51 61
e 51 63
e 51 64
e 51 65
e 51 68
e 51 69
e 51 71
e 51 75
e 52 54
e 52 57
e 52 58
e 52 60
e 52 62
e 52 63
e 52 64
e 52 66
e 52 67
e 52 68
e 52 70
e 52 71
e 52 73
e 52 74
e 52 75
e 53 54
e 53 56
e 53 57
e 53 60
e 53 62
e 53 63
e 53 64
e 53 65
e 53 70
e 53 72
e 53 74
e 53 75
e 54 55
e 54 56
e 54 58
e 54 59
e 54 61
e 54 62
e 54 63
e 54 64
e 54 68
e 54 69
e 54 73
e 54 75
e 55 56
e 55 57
e 55 62
e 55 63
e 55 65
e 55 67
e 55 69
e 55 70
e 55 74
e 55 75
e 56 59
e 56 62
e 56 63
e 56 65
e 56 66
e 56 67
e 56 71
e 56 74
e 57 61
e 57 62
e 57 63
e 57 66
e 57 67
e 57 68
e 57 69
e 57 70
e 57 71
e 57 72
e 57 74
e 58 59
e 58 61
e 58 66
e 58 67
e 58 68
e 58 70
e 58 72
e 58 73
e 58 74
e 58 75
e 59 65
e 59 66
e 59 69
e 59 71
e 59 73
e 59 74
e 59 75
e 60 61
e 60 63
e 60 66
e 60 67
e 60 68
e 60 69
e 60 70
e 60 71
e 60 73
e 61 62
e 61 63
e 61 68
e 61 69
e 61 70
e 61 71
e 61 73
e 61 74
e 61 75
e 62 65
e 62 69
e 62 71
e 62 72
e 63 64
e 63 65
e 63 66
e 63 69
e 63 70
e 64 65
e 64 68
e 64 69
e 64 70
e 64 71
e 64 72
e 64 73
e 64 74
e 64 75
e 65 67
e 65 68
e 65 71
e 65 72
e 65 73
e 65 75
e 66 67
e 66 69
e 66 70
e 66 74
e 67 71
e 67 72
e 67 73
e 67 75
e 68 71
e 68 73
e 68 74
e 68 75
e 69 70
e 69 72
e 69 73
e 69 74
e 70 73
e 70 74
e 71 72
e 71 74
e 71 75
e 72 73
e 72 74
e 73 75
